1
1000
120
498 1
495 1
495 1
493 1
492 1
488 1
486 1
484 1
482 1
480 1
476 1
473 1
473 1
460 1
457 1
455 1
450 1
450 1
447 1
447 1
446 1
429 1
421 1
411 1
408 1
400 1
398 1
397 1
395 1
391 1
388 1
383 1
379 1
377 1
377 1
375 1
375 1
370 1
366 1
361 1
358 1
357 1
356 1
354 1
350 1
348 1
348 1
347 1
343 1
341 1
340 1
339 1
329 1
329 1
326 1
323 1
322 1
309 1
302 1
298 1
298 1
296 1
294 1
293 1
293 1
290 1
284 1
283 1
283 1
282 1
281 1
281 1
280 1
278 1
278 1
277 1
273 1
272 1
272 1
271 1
269 1
269 1
268 1
267 1
266 1
266 1
266 1
265 1
264 1
264 1
261 1
261 1
260 1
260 1
260 1
260 1
259 1
257 1
257 1
255 1
255 1
255 1
255 1
254 1
254 1
253 1
253 1
253 1
252 1
252 1
252 1
251 1
251 1
250 1
250 1
250 1
250 1
250 1
250 1
250 1
